sat

(objectives
 ((bvadd PriceProv6 (bvadd PriceProv5 (bvadd PriceProv4 (bvadd PriceProv3 (bvadd PriceProv1 PriceProv2))))) (_ bv11611 32))
)
;; statistics
(
 :cnf-variables 782
 :cnf-literals 2379
 :cnf-clauses 1072
 :sat-checks 12
 :sat-restarts 31
 :sat-decisions 14855
 :sat-random-decisions 6
 :sat-propagations 123359432
 :sat-theory-propagations 3
 :sat-watched-clauses-visited 132937311
 :sat-binary-watched-clauses-visited 85885202
 :sat-conflicts 7568
 :sat-theory-conflicts 0
 :theory-necessary-interface-equalities 0
 :theory-extra-interface-equalities 0
 :euf-total-calls 16180
 :euf-complete-calls 6
 :euf-conflicts 0
 :euf-implications 3
 :euf-explanations 0
 :euf-egraph-nodes-created 7484
 :euf-egraph-nodes-deleted 5304
 :euf-num-asserted-equalities 348859
 :euf-num-asserted-inequalities 185459
 :euf-num-merges 701046
 :euf-num-merges-undone 701046
 :euf-num-atoms-retold 1152
 :la-total-calls 16180
 :la-complete-calls 6
 :la-conflicts 0
 :la-implications 0
 :la-explanations 0
 :la-num-equalities-split 0
 :la-num-tableau-rows 0
 :la-num-tableau-variables 0
 :bv-total-calls 16180
 :bv-complete-calls 6
 :bv-conflicts 0
 :bv-implications 0
 :bv-explanations 0
 :fp-total-calls 16180
 :fp-complete-calls 6
 :fp-conflicts 0
 :fp-implications 0
 :fp-explanations 0
 :arr-total-calls 16180
 :arr-complete-calls 6
 :arr-conflicts 0
 :arr-implications 0
 :arr-explanations 0
 :arr-write-lemmas-added 0
 :arr-row-lemmas-added 0
 :arr-ext-lemmas-added 0
 :arr-const-lemmas-added 0
 :na-total-calls 16180
 :na-complete-calls 6
 :na-conflicts 0
 :na-implications 0
 :na-explanations 0
 :na-num_nonlinear_multiplications 0
 :na-num_axiom_checks 0
 :na-num_zero_lemmas 0
 :na-num_sign_lemmas 0
 :na-num_neutral_lemmas 0
 :na-num_proportionality_lemmas 0
 :na-num_bound_lemmas 0
 :na-num_tangent_lemmas 0
 :na-num_monotonicity_lemmas 0
 :na-num_sat_checks 0
 :na-axiom_check_time 0.000
 :na-sat_check_time 0.000
 :time-seconds 14.662
 :memory-mb 74.187
)
